unsat
(forall ((A (_ BitVec 20))
         (B (_ BitVec 20))
         (C (_ BitVec 20))
         (D (_ BitVec 20))
         (E (_ BitVec 20))
         (F (_ BitVec 20))
         (G (_ BitVec 20))
         (H (_ BitVec 20))
         (I (_ BitVec 20))
         (J (_ BitVec 20))
         (K (_ BitVec 20))
         (L (_ BitVec 20))
         (M (_ BitVec 20))
         (N (_ BitVec 20))
         (O (_ BitVec 20))
         (P (_ BitVec 20))
         (Q (_ BitVec 20))
         (R (_ BitVec 20))
         (S (_ BitVec 20))
         (T (_ BitVec 20))
         (U (_ BitVec 1))
         (V (_ BitVec 18))
         (W (_ BitVec 20))
         (X (_ BitVec 18))
         (Y (_ BitVec 20))
         (Z (_ BitVec 20))
         (A1 (_ BitVec 38))
         (B1 (_ BitVec 1))
         (C1 (_ BitVec 20))
         (D1 (_ BitVec 20))
         (E1 (_ BitVec 17))
         (F1 (_ BitVec 1))
         (G1 (_ BitVec 20))
         (H1 (_ BitVec 20))
         (I1 (_ BitVec 17))
         (J1 (_ BitVec 20))
         (K1 (_ BitVec 20))
         (L1 (_ BitVec 20))
         (M1 (_ BitVec 20))
         (N1 (_ BitVec 20))
         (O1 (_ BitVec 38))
         (P1 (_ BitVec 20))
         (Q1 (_ BitVec 38))
         (R1 (_ BitVec 20))
         (S1 (_ BitVec 1))
         (T1 (_ BitVec 38))
         (U1 (_ BitVec 1))
         (V1 (_ BitVec 20))
         (W1 (_ BitVec 20))
         (X1 (_ BitVec 20))
         (Y1 (_ BitVec 20))
         (Z1 (_ BitVec 14))
         (A2 (_ BitVec 17))
         (B2 (_ BitVec 17))
         (C2 (_ BitVec 17))
         (D2 (_ BitVec 17))
         (E2 (_ BitVec 20))
         (F2 (_ BitVec 20))
         (G2 (_ BitVec 20))
         (H2 (_ BitVec 1))
         (I2 (_ BitVec 22))
         (J2 (_ BitVec 20))
         (K2 (_ BitVec 20))
         (L2 (_ BitVec 20))
         (M2 (_ BitVec 1))
         (N2 (_ BitVec 20))
         (O2 (_ BitVec 1))
         (P2 (_ BitVec 1))
         (Q2 (_ BitVec 1))
         (R2 (_ BitVec 38))
         (S2 (_ BitVec 14))
         (T2 (_ BitVec 22))
         (U2 (_ BitVec 14))
         (V2 (_ BitVec 22))
         (W2 (_ BitVec 14))
         (X2 (_ BitVec 22))
         (Y2 (_ BitVec 14))
         (Z2 (_ BitVec 22))
         (A3 (_ BitVec 38))
         (B3 (_ BitVec 22))
         (C3 (_ BitVec 20))
         (D3 (_ BitVec 16))
         (E3 (_ BitVec 38))
         (F3 (_ BitVec 30))
         (G3 (_ BitVec 30))
         (H3 (_ BitVec 20))
         (I3 (_ BitVec 20))
         (J3 (_ BitVec 20))
         (K3 (_ BitVec 20))
         (L3 (_ BitVec 20))
         (M3 (_ BitVec 20))
         (N3 (_ BitVec 20))
         (O3 (_ BitVec 16))
         (P3 (_ BitVec 20))
         (Q3 (_ BitVec 18))
         (R3 (_ BitVec 30))
         (S3 (_ BitVec 1))
         (T3 (_ BitVec 38))
         (U3 (_ BitVec 30)))
  (! (let ((a!1 (or (not (= F1 #b1)) (not (= ((_ extract 17 17) X) #b1))))
           (a!2 (or (not (= F1 #b1)) (not (= ((_ extract 17 17) Q3) #b1))))
           (a!3 (or (not (= ((_ extract 0 0) E2) #b1))
                    (= ((_ extract 0 0) Y) #b1)))
           (a!4 (or ((_ bit2bool 0) J2) (not (= ((_ extract 0 0) G1) #b1))))
           (a!5 (or (not (= ((_ extract 0 0) F2) #b1))
                    (= ((_ extract 0 0) O) #b1)))
           (a!6 (or ((_ bit2bool 0) P1) (not (= ((_ extract 0 0) D1) #b1))))
           (a!7 ((_ extract 9 2)
                  (bvadd (concat #b0 B3) (concat #b000 ((_ extract 21 2) I2)))))
           (a!9 (concat ((_ extract 7 2)
                          (bvadd ((_ extract 37 4) T1) (concat #x000 T2)))
                        (bvadd ((_ extract 5 4) T1) ((_ extract 1 0) T2))
                        ((_ extract 3 0) T1)))
           (a!10 (concat ((_ extract 5 2)
                           (bvadd (concat #b0000000000 V2)
                                  ((_ extract 37 6) O1)))
                         (bvadd ((_ extract 7 6) O1) ((_ extract 1 0) V2))
                         ((_ extract 5 0) O1)))
           (a!11 (concat ((_ extract 3 2)
                           (bvadd (concat #x00 X2) ((_ extract 37 8) A1)))
                         (bvadd ((_ extract 9 8) A1) ((_ extract 1 0) X2))
                         ((_ extract 7 0) A1)))
           (a!12 (= (concat (bvadd ((_ extract 11 10) Q1) ((_ extract 1 0) Z2))
                            ((_ extract 9 0) Q1))
                    ((_ extract 11 0) E1))))
     (let ((a!8 (= (concat a!7
                           (bvadd ((_ extract 3 2) I2) ((_ extract 1 0) B3))
                           ((_ extract 1 0) I2))
                   ((_ extract 11 0) A2))))
     (let ((a!13 (and (or (not (= P2 #b0)) (= Q2 #b0))
                      a!1
                      (or ((_ bit2bool 0) X)
                          ((_ bit2bool 0) V)
                          (not (= F1 #b1))
                          (not ((_ bit2bool 0) Q3)))
                      (not ((_ bit2bool 3) W2))
                      (not ((_ bit2bool 2) W2))
                      (not ((_ bit2bool 1) W2))
                      (not ((_ bit2bool 0) W2))
                      a!2
                      (not ((_ bit2bool 5) U2))
                      (not ((_ bit2bool 4) U2))
                      (not ((_ bit2bool 3) U2))
                      (not ((_ bit2bool 2) U2))
                      (not ((_ bit2bool 1) U2))
                      (not ((_ bit2bool 0) U2))
                      (or ((_ bit2bool 0) L)
                          ((_ bit2bool 0) X1)
                          (not ((_ bit2bool 0) N1)))
                      (not ((_ bit2bool 5) S2))
                      (not ((_ bit2bool 4) S2))
                      a!3
                      a!4
                      a!5
                      a!6
                      (not ((_ bit2bool 1) S2))
                      (not ((_ bit2bool 3) S2))
                      (not ((_ bit2bool 2) S2))
                      (not ((_ bit2bool 1) Y2))
                      (or (not (= E2 #x00001)) a!8)
                      (not ((_ bit2bool 0) S2))
                      (or (not (= G1 #x00001)) (= ((_ extract 11 0) B2) a!9))
                      (or (not (= F2 #x00001)) (= a!10 ((_ extract 11 0) I1)))
                      (or (not (= D1 #x00001)) (= ((_ extract 11 0) C2) a!11))
                      (not ((_ bit2bool 6) S2))
                      (not ((_ bit2bool 0) Y2))
                      (not ((_ bit2bool 7) S2))
                      (or a!12 (not (= G2 #x00001)))
                      (or (not (= C1 #x00001))
                          (= ((_ extract 11 0) D2) ((_ extract 11 0) A3))))))
       (= (INV!slice!1 A
                       B
                       C
                       D
                       E
                       F
                       G
                       H
                       I
                       J
                       K
                       L
                       M
                       N
                       O
                       P
                       Q
                       R
                       S
                       T
                       U
                       V
                       W
                       X
                       Y
                       Z
                       A1
                       B1
                       C1
                       D1
                       E1
                       F1
                       G1
                       H1
                       I1
                       J1
                       K1
                       L1
                       M1
                       N1
                       O1
                       P1
                       Q1
                       R1
                       S1
                       T1
                       U1
                       V1
                       W1
                       X1
                       Y1
                       Z1
                       A2
                       B2
                       C2
                       D2
                       E2
                       F2
                       G2
                       H2
                       I2
                       J2
                       K2
                       L2
                       M2
                       N2
                       O2
                       P2
                       Q2
                       R2
                       S2
                       T2
                       U2
                       V2
                       W2
                       X2
                       Y2
                       Z2
                       A3
                       B3
                       C3
                       D3
                       E3
                       F3
                       G3
                       H3
                       I3
                       J3
                       K3
                       L3
                       M3
                       N3
                       O3
                       P3
                       Q3
                       R3
                       S3
                       T3
                       U3)
          a!13))))
     :weight 0))
